25° run output:
{
    "Function": "euclidA500.tsp",
    "Problem dimension": [
        400,
        167,
        59,
        136,
        395,
        238,
        128,
        235,
        372,
        455,
        150,
        137,
        214,
        448,
        498,
        173,
        121,
        196,
        487,
        61,
        191,
        336,
        4,
        374,
        164,
        320,
        433,
        312,
        266,
        125,
        160,
        286,
        194,
        76,
        269,
        249,
        482,
        406,
        479,
        408,
        414,
        292,
        353,
        402,
        185,
        392,
        155,
        72,
        90,
        94,
        251,
        279,
        233,
        466,
        224,
        3,
        35,
        277,
        2,
        426,
        270,
        291,
        397,
        241,
        409,
        48,
        130,
        1,
        306,
        364,
        281,
        289,
        407,
        444,
        352,
        356,
        226,
        253,
        349,
        415,
        119,
        449,
        472,
        342,
        169,
        446,
        319,
        305,
        298,
        80,
        366,
        432,
        309,
        377,
        127,
        491,
        272,
        50,
        314,
        200,
        485,
        222,
        63,
        243,
        332,
        215,
        316,
        273,
        242,
        202,
        104,
        145,
        304,
        56,
        43,
        209,
        294,
        370,
        459,
        220,
        88,
        255,
        368,
        295,
        57,
        38,
        78,
        181,
        188,
        391,
        369,
        247,
        11,
        300,
        143,
        410,
        6,
        195,
        51,
        21,
        425,
        362,
        365,
        228,
        29,
        74,
        347,
        296,
        321,
        384,
        205,
        91,
        33,
        358,
        66,
        19,
        461,
        488,
        46,
        112,
        311,
        265,
        318,
        120,
        310,
        274,
        154,
        303,
        49,
        92,
        122,
        323,
        100,
        73,
        189,
        317,
        36,
        480,
        198,
        412,
        340,
        381,
        171,
        481,
        102,
        9,
        197,
        346,
        47,
        152,
        113,
        193,
        380,
        343,
        476,
        42,
        262,
        283,
        114,
        307,
        282,
        464,
        450,
        101,
        325,
        497,
        142,
        470,
        403,
        445,
        419,
        105,
        89,
        85,
        24,
        5,
        86,
        182,
        257,
        58,
        67,
        93,
        97,
        14,
        264,
        271,
        454,
        385,
        418,
        440,
        441,
        496,
        285,
        176,
        10,
        79,
        434,
        390,
        341,
        180,
        484,
        275,
        399,
        237,
        355,
        236,
        357,
        256,
        123,
        428,
        157,
        212,
        109,
        98,
        144,
        404,
        302,
        383,
        232,
        183,
        13,
        70,
        405,
        22,
        422,
        135,
        252,
        339,
        81,
        116,
        424,
        416,
        465,
        308,
        267,
        489,
        27,
        20,
        351,
        350,
        184,
        111,
        299,
        230,
        334,
        221,
        268,
        297,
        7,
        139,
        168,
        18,
        141,
        234,
        338,
        225,
        146,
        254,
        248,
        244,
        156,
        278,
        161,
        110,
        227,
        159,
        438,
        293,
        469,
        421,
        495,
        206,
        439,
        337,
        16,
        371,
        284,
        483,
        140,
        473,
        435,
        204,
        398,
        382,
        153,
        442,
        75,
        187,
        203,
        126,
        87,
        471,
        151,
        52,
        330,
        39,
        96,
        457,
        490,
        494,
        34,
        348,
        354,
        463,
        84,
        423,
        71,
        456,
        60,
        477,
        229,
        301,
        138,
        41,
        250,
        359,
        486,
        179,
        458,
        163,
        30,
        475,
        260,
        15,
        462,
        367,
        239,
        95,
        478,
        82,
        436,
        23,
        208,
        427,
        452,
        344,
        394,
        276,
        68,
        411,
        401,
        287,
        162,
        313,
        373,
        375,
        199,
        453,
        147,
        378,
        83,
        31,
        361,
        213,
        393,
        186,
        216,
        54,
        207,
        246,
        218,
        493,
        12,
        333,
        376,
        499,
        258,
        210,
        44,
        331,
        108,
        315,
        53,
        329,
        389,
        219,
        345,
        217,
        324,
        474,
        158,
        149,
        460,
        245,
        420,
        290,
        431,
        103,
        386,
        467,
        240,
        55,
        131,
        259,
        32,
        447,
        263,
        106,
        134,
        148,
        124,
        172,
        363,
        201,
        25,
        492,
        77,
        413,
        0,
        443,
        8,
        468,
        17,
        64,
        165,
        396,
        117,
        192,
        231,
        178,
        379,
        335,
        28,
        388,
        177,
        174,
        387,
        417,
        175,
        280,
        429,
        360,
        65,
        326,
        327,
        107,
        166,
        132,
        37,
        69,
        170,
        99,
        328,
        261,
        62,
        437,
        129,
        430,
        322,
        118,
        190,
        115,
        223,
        26,
        45,
        451,
        40,
        288,
        133,
        211
    ],
    "Global Optimum": 0,
    "Algorithm": "Genetic algorithm",
    "Parameters": {
        "population": 30,
        "offspring": 30,
        "mutation probability": 0.002,
        "crossover probability": 0.9
    },
    "Fitness": 708483,
    "Solution": [
        400,
        167,
        59,
        136,
        395,
        238,
        128,
        235,
        372,
        455,
        150,
        137,
        214,
        448,
        498,
        173,
        121,
        196,
        487,
        61,
        191,
        336,
        4,
        374,
        164,
        320,
        433,
        312,
        266,
        125,
        160,
        286,
        194,
        76,
        269,
        249,
        482,
        406,
        479,
        408,
        414,
        292,
        353,
        402,
        185,
        392,
        155,
        72,
        90,
        94,
        251,
        279,
        233,
        466,
        224,
        3,
        35,
        277,
        2,
        426,
        270,
        291,
        397,
        241,
        409,
        48,
        130,
        1,
        306,
        364,
        281,
        289,
        407,
        444,
        352,
        356,
        226,
        253,
        349,
        415,
        119,
        449,
        472,
        342,
        169,
        446,
        319,
        305,
        298,
        80,
        366,
        432,
        309,
        377,
        127,
        491,
        272,
        50,
        314,
        200,
        485,
        222,
        63,
        243,
        332,
        215,
        316,
        273,
        242,
        202,
        104,
        145,
        304,
        56,
        43,
        209,
        294,
        370,
        459,
        220,
        88,
        255,
        368,
        295,
        57,
        38,
        78,
        181,
        188,
        391,
        369,
        247,
        11,
        300,
        143,
        410,
        6,
        195,
        51,
        21,
        425,
        362,
        365,
        228,
        29,
        74,
        347,
        296,
        321,
        384,
        205,
        91,
        33,
        358,
        66,
        19,
        461,
        488,
        46,
        112,
        311,
        265,
        318,
        120,
        310,
        274,
        154,
        303,
        49,
        92,
        122,
        323,
        100,
        73,
        189,
        317,
        36,
        480,
        198,
        412,
        340,
        381,
        171,
        481,
        102,
        9,
        197,
        346,
        47,
        152,
        113,
        193,
        380,
        343,
        476,
        42,
        262,
        283,
        114,
        307,
        282,
        464,
        450,
        101,
        325,
        497,
        142,
        470,
        403,
        445,
        419,
        105,
        89,
        85,
        24,
        5,
        86,
        182,
        257,
        58,
        67,
        93,
        97,
        14,
        264,
        271,
        454,
        385,
        418,
        440,
        441,
        496,
        285,
        176,
        10,
        79,
        434,
        390,
        341,
        180,
        484,
        275,
        399,
        237,
        355,
        236,
        357,
        256,
        123,
        428,
        157,
        212,
        109,
        98,
        144,
        404,
        302,
        383,
        232,
        183,
        13,
        70,
        405,
        22,
        422,
        135,
        252,
        339,
        81,
        116,
        424,
        416,
        465,
        308,
        267,
        489,
        27,
        20,
        351,
        350,
        184,
        111,
        299,
        230,
        334,
        221,
        268,
        297,
        7,
        139,
        168,
        18,
        141,
        234,
        338,
        225,
        146,
        254,
        248,
        244,
        156,
        278,
        161,
        110,
        227,
        159,
        438,
        293,
        469,
        421,
        495,
        206,
        439,
        337,
        16,
        371,
        284,
        483,
        140,
        473,
        435,
        204,
        398,
        382,
        153,
        442,
        75,
        187,
        203,
        126,
        87,
        471,
        151,
        52,
        330,
        39,
        96,
        457,
        490,
        494,
        34,
        348,
        354,
        463,
        84,
        423,
        71,
        456,
        60,
        477,
        229,
        301,
        138,
        41,
        250,
        359,
        486,
        179,
        458,
        163,
        30,
        475,
        260,
        15,
        462,
        367,
        239,
        95,
        478,
        82,
        436,
        23,
        208,
        427,
        452,
        344,
        394,
        276,
        68,
        411,
        401,
        287,
        162,
        313,
        373,
        375,
        199,
        453,
        147,
        378,
        83,
        31,
        361,
        213,
        393,
        186,
        216,
        54,
        207,
        246,
        218,
        493,
        12,
        333,
        376,
        499,
        258,
        210,
        44,
        331,
        108,
        315,
        53,
        329,
        389,
        219,
        345,
        217,
        324,
        474,
        158,
        149,
        460,
        245,
        420,
        290,
        431,
        103,
        386,
        467,
        240,
        55,
        131,
        259,
        32,
        447,
        263,
        106,
        134,
        148,
        124,
        172,
        363,
        201,
        25,
        492,
        77,
        413,
        0,
        443,
        8,
        468,
        17,
        64,
        165,
        396,
        117,
        192,
        231,
        178,
        379,
        335,
        28,
        388,
        177,
        174,
        387,
        417,
        175,
        280,
        429,
        360,
        65,
        326,
        327,
        107,
        166,
        132,
        37,
        69,
        170,
        99,
        328,
        261,
        62,
        437,
        129,
        430,
        322,
        118,
        190,
        115,
        223,
        26,
        45,
        451,
        40,
        288,
        133,
        211
    ],
    "Nb of functions evaluations": 50010,
    "Computational time in seconds": 366.23617577552795,
    "Stopping criterion in evaluations": 50000
}